NAME           NO_TITLE
ROWS
 N       OBJ
 E  R0000000
 G  R0000001
 E  R0000002
 G  R0000003
COLUMNS
    C0000000       OBJ  1
    C0000000  R0000000  3
    C0000000  R0000002  4
    C0000001       OBJ  1
    C0000001  R0000001  6
    C0000001  R0000002  5
    C0000001  R0000003  7
    C0000002       OBJ  1
    C0000002  R0000002  8
    C0000002  R0000003  1
    C0000003       OBJ  1
    C0000003  R0000000  2
    C0000003  R0000001  9
RHS
    RHS1      R0000000  20
    RHS1      R0000001  20
    RHS1      R0000002  40
    RHS1      R0000003  10
BOUNDS
 LO BND1      C0000000  2
 UP BND1      C0000000  5
 LO BND1      C0000001  1
 MI BND1      C0000002
 UP BND1      C0000002  10
 FR BND1      C0000003
ENDATA
